20180612 33700.00 33000.00
20170904 33730.20 10795.02
20170707 33730.20 10795.02
20170522 24847.31 8303.86
20170324 24847.31 8303.86
20160927 24847.31 8303.86
20160623 24847.31 7880.21
20160422 16564.87 5253.47
20151020 16564.87 4000.00
